127870
48,33,56,1,29,34,27,82,7,58,52,62,38,51,40,77,60,37,15,26,32,10,81,43,21,18,23,30,64,49,3,67,47,53,45,44,72,63,28,9,0,36,17,12,79,13,66,75,69,61,25,35,8,76,57,16,55,6,50,71,80,42,59,46,19,65,70,20,4,31,73,39,74,78,5,14,68,24,41,54,22,11,2,48